
Gurobi 11.0.3 (linux64) logging started Fri Nov 22 21:23:05 2024

Set parameter LogFile to value "/home/yihong/Coding/OR_SUC/SUC_results_bigM100000_thread4/case24_ieee_rts_theta0.1_epsilon0.025_gurobi_seed450000_num_gen100_N_WDR100_load_scaling_factor1_exact_T16quadra_cost.txt"
Set parameter TimeLimit to value 3600
Gurobi Optimizer version 11.0.3 build v11.0.3rc0 (linux64 - "Ubuntu 20.04.6 LTS")

CPU model: AMD EPYC 7532 32-Core Processor, instruction set [SSE2|AVX|AVX2]
Thread count: 64 physical cores, 128 logical processors, using up to 4 threads

Optimize a model with 34563 rows, 20041 columns and 474826 nonzeros
Model fingerprint: 0xf910e532
Model has 1600 quadratic constraints
Variable types: 18341 continuous, 1700 integer (1700 binary)
Coefficient statistics:
  Matrix range     [3e-04, 1e+05]
  QMatrix range    [2e-03, 8e-03]
  QLMatrix range   [4e-02, 6e+01]
  Objective range  [1e+00, 1e+00]
  Bounds range     [1e+00, 1e+00]
  RHS range        [1e+00, 1e+05]
Presolve removed 27993 rows and 8727 columns
Presolve time: 0.16s
Presolved: 6570 rows, 11314 columns, 43176 nonzeros
Presolved model has 1600 quadratic constraint(s)
Variable types: 9659 continuous, 1655 integer (1655 binary)

Root relaxation: objective 2.420315e+04, 4906 iterations, 0.10 seconds (0.13 work units)

    Nodes    |    Current Node    |     Objective Bounds      |     Work
 Expl Unexpl |  Obj  Depth IntInf | Incumbent    BestBd   Gap | It/Node Time

     0     0 24203.1469    0   19          - 24203.1469      -     -    0s
     0     0 260309.473    0  504          - 260309.473      -     -    0s
     0     0 260623.773    0  504          - 260623.773      -     -    0s
     0     0 473512.140    0  445          - 473512.140      -     -    0s
     0     0 473523.186    0  280          - 473523.186      -     -    0s
     0     0 473917.521    0  183          - 473917.521      -     -    0s
     0     0 474067.538    0  182          - 474067.538      -     -    1s
     0     0 474068.685    0  182          - 474068.685      -     -    1s
     0     2 474072.529    0  182          - 474072.529      -     -    1s
H  227   257                    474315.99649 474168.566  0.03%  20.5    2s
*  227   257              87    474315.99649 474168.566  0.03%  20.5    2s

Cutting planes:
  Gomory: 10
  Implied bound: 219
  MIR: 124
  Flow cover: 253

Explored 260 nodes (18656 simplex iterations) in 2.43 seconds (2.83 work units)
Thread count was 4 (of 128 available processors)

Solution count 2: 474316 474316 

Optimal solution found (tolerance 1.00e-03)
Warning: max constraint violation (6.0447e-07) exceeds tolerance
Best objective 4.743159964923e+05, best bound 4.741685656684e+05, gap 0.0311%
